p cnf 22 53
-1 4 5 6 7 8 9 10 11 12 13 14 19 0 
-1 4 5 6 7 8 9 10 11 12 13 14 20 0 
-1 4 5 6 7 8 9 10 11 12 13 14 21 0 
-2 19 0 
-2 21 0 
-3 22 0 
-2 20 0 
-4 1 5 6 7 8 9 10 11 12 13 14 21 0 
-5 1 4 6 7 8 9 10 11 12 13 14 21 0 
-6 1 4 5 7 8 9 10 11 12 13 14 21 0 
-7 1 4 5 6 8 9 10 11 12 13 14 21 0 
-8 1 4 5 6 7 9 10 11 12 13 14 21 0 
-9 1 4 5 6 7 8 10 11 12 13 14 21 0 
-10 1 4 5 6 7 8 9 11 12 13 14 21 0 
-11 1 4 5 6 7 8 9 10 12 13 14 21 0 
-12 1 4 5 6 7 8 9 10 11 13 14 21 0 
-13 1 4 5 6 7 8 9 10 11 12 14 21 0 
-4 1 5 6 7 8 9 10 11 12 13 14 19 0 
-10 1 4 5 6 7 8 9 11 12 13 14 19 0 
-12 1 4 5 6 7 8 9 10 11 13 14 19 0 
-6 1 4 5 7 8 9 10 11 12 13 14 19 0 
-5 1 4 6 7 8 9 10 11 12 13 14 19 0 
-11 1 4 5 6 7 8 9 10 12 13 14 19 0 
-13 1 4 5 6 7 8 9 10 11 12 14 19 0 
-9 1 4 5 6 7 8 10 11 12 13 14 19 0 
-8 1 4 5 6 7 9 10 11 12 13 14 19 0 
-7 1 4 5 6 8 9 10 11 12 13 14 19 0 
-9 1 4 5 6 7 8 10 11 12 13 14 22 0 
-6 1 4 5 7 8 9 10 11 12 13 14 22 0 
-12 1 4 5 6 7 8 9 10 11 13 14 20 0 
-4 1 5 6 7 8 9 10 11 12 13 14 20 0 
-6 1 4 5 7 8 9 10 11 12 13 14 20 0 
-13 1 4 5 6 7 8 9 10 11 12 14 20 0 
-10 1 4 5 6 7 8 9 11 12 13 14 20 0 
-9 1 4 5 6 7 8 10 11 12 13 14 20 0 
-7 1 4 5 6 8 9 10 11 12 13 14 20 0 
-11 1 4 5 6 7 8 9 10 12 13 14 20 0 
-5 1 4 6 7 8 9 10 11 12 13 14 20 0 
-8 1 4 5 6 7 9 10 11 12 13 14 20 0 
-14 1 4 5 6 7 8 9 10 11 12 13 20 0 
-15 22 0 
-14 1 4 5 6 7 8 9 10 11 12 13 21 0 
-14 1 4 5 6 7 8 9 10 11 12 13 19 0 
-16 20 0 
-2 22 0 
-3 20 0 
-14 1 4 5 6 7 8 9 10 11 12 13 22 0 
-3 21 0 
-3 19 0 
-17 21 0 
-8 1 4 5 6 7 9 10 11 12 13 14 22 0 
-16 19 0 
-18 19 0 
